benchmarks_vrp/CMT12/no_cluster/CMT12_1.vrp
NAME: CMT12_1
TYPE: CVRP
COMMENT: 819.56 - Cluster Nr.1
DIMENSION: 9
CAPACITY: 200
EDGE_WEIGHT_TYPE: EUC_2D
NODE_COORD_TYPE: TWOD_COORDS
NODE_COORD_SECTION: 
9 40 15
3 44 5
1 35 5
5 40 5
2 42 15
4 40 50
7 42 10
6 38 15
8 38 5
DEPOT_SECTION: 
4
-1
DEMAND_SECTION: 
5 30
2 10
4 0
3 20
9 40
1 20
8 30
6 10
7 40
EOF
