benchmarks_vrp/CMT12/no_cluster/CMT12_1.tour
NAME: CMT12_1 solution
TYPE: TOUR
TOUR_SECTION:
4 6 1 8 5 3 7 2 9 -1
-1
EOF